NdNb2O7NH4                              
   1.00000000000000     
     5.4293434508814471    0.0000000000000000    0.0000000000000000
     0.0000000000000000    5.4293434508814471    0.0000000000000000
     0.0000000000000000    0.0000000000000000   22.1542825860808676
   Nd   Nb   O    N    H 
     4     8    28     4    16
Direct
  0.5000000000000000  0.0000000000000000  0.2500000000000000
  0.0000000000000000  0.5000000000000000  0.2500000000000000
  0.5000000000000000  0.0000000000000000  0.7500000000000000
  0.0000000000000000  0.5000000000000000  0.7500000000000000
  0.0000000000000000  0.0000000000000000  0.1486501333029082
  0.5000000000000000  0.5000000000000000  0.1486501333029082
  0.0000000000000000  0.0000000000000000  0.6486501333029082
  0.5000000000000000  0.5000000000000000  0.6486501333029082
  0.0000000000000000  0.0000000000000000  0.3513498666970918
  0.5000000000000000  0.5000000000000000  0.3513498666970918
  0.0000000000000000  0.0000000000000000  0.8513498666970918
  0.5000000000000000  0.5000000000000000  0.8513498666970918
  0.0000000000000000  0.0000000000000000  0.2500000000000000
  0.5000000000000000  0.5000000000000000  0.2500000000000000
  0.0000000000000000  0.0000000000000000  0.7500000000000000
  0.5000000000000000  0.5000000000000000  0.7500000000000000
  0.2500000000000000  0.2500000000000000  0.3309407311884414
  0.7500000000000000  0.7500000000000000  0.3309407311884414
  0.2500000000000000  0.2500000000000000  0.8309407311884414
  0.7500000000000000  0.7500000000000000  0.8309407311884414
  0.2500000000000000  0.7500000000000000  0.3309407311884414
  0.7500000000000000  0.2500000000000000  0.3309407311884414
  0.2500000000000000  0.7500000000000000  0.8309407311884414
  0.7500000000000000  0.2500000000000000  0.8309407311884414
  0.2500000000000000  0.7500000000000000  0.1690592538115538
  0.7500000000000000  0.2500000000000000  0.1690592538115538
  0.2500000000000000  0.7500000000000000  0.6690592538115538
  0.7500000000000000  0.2500000000000000  0.6690592538115538
  0.2500000000000000  0.2500000000000000  0.1690592538115538
  0.7500000000000000  0.7500000000000000  0.1690592538115538
  0.2500000000000000  0.2500000000000000  0.6690592538115538
  0.7500000000000000  0.7500000000000000  0.6690592538115538
  0.0000000000000000  0.0000000000000000  0.0678041001726299
  0.5000000000000000  0.5000000000000000  0.0678041001726299
  0.0000000000000000  0.0000000000000000  0.5678041001726299
  0.5000000000000000  0.5000000000000000  0.5678041001726299
  0.0000000000000000  0.0000000000000000  0.4321958998273701
  0.5000000000000000  0.5000000000000000  0.4321958998273701
  0.0000000000000000  0.0000000000000000  0.9321958998273701
  0.5000000000000000  0.5000000000000000  0.9321958998273701
  0.5000000000000000  0.0000000000000000  0.0000000000000000
  0.0000000000000000  0.5000000000000000  0.0000000000000000
  0.5000000000000000  0.0000000000000000  0.5000000000000000
  0.0000000000000000  0.5000000000000000  0.5000000000000000
  0.6601231254133708  0.0000000000000000  0.0264789663931921
  0.1601231254133708  0.5000000000000000  0.0264789663931921
  0.6601231254133708  0.0000000000000000  0.5264789663931921
  0.1601231254133708  0.5000000000000000  0.5264789663931921
  0.3398767705866206  0.9999998660000102  0.0264789663931921
  0.8398767705866206  0.4999998660000102  0.0264789663931921
  0.3398767705866206  0.9999998660000102  0.5264789663931921
  0.8398767705866206  0.4999998660000102  0.5264789663931921
  0.5000001339999898  0.8398767705866206  0.4735210321068024
  0.0000001339999898  0.3398767705866206  0.4735210321068024
  0.5000001339999898  0.8398767705866206  0.9735210321068024
  0.0000001339999898  0.3398767705866206  0.9735210321068024
  0.4999998810000008  0.1601232444133700  0.4735207936068093
  0.9999998810000008  0.6601232444133700  0.4735207936068093
  0.4999998810000008  0.1601232444133700  0.9735207936068093
  0.9999998810000008  0.6601232444133700  0.9735207936068093
 
  0.00000000E+00  0.00000000E+00  0.00000000E+00
  0.00000000E+00  0.00000000E+00  0.00000000E+00
  0.00000000E+00  0.00000000E+00  0.00000000E+00
  0.00000000E+00  0.00000000E+00  0.00000000E+00
  0.00000000E+00  0.00000000E+00  0.00000000E+00
  0.00000000E+00  0.00000000E+00  0.00000000E+00
  0.00000000E+00  0.00000000E+00  0.00000000E+00
  0.00000000E+00  0.00000000E+00  0.00000000E+00
  0.00000000E+00  0.00000000E+00  0.00000000E+00
  0.00000000E+00  0.00000000E+00  0.00000000E+00
  0.00000000E+00  0.00000000E+00  0.00000000E+00
  0.00000000E+00  0.00000000E+00  0.00000000E+00
  0.00000000E+00  0.00000000E+00  0.00000000E+00
  0.00000000E+00  0.00000000E+00  0.00000000E+00
  0.00000000E+00  0.00000000E+00  0.00000000E+00
  0.00000000E+00  0.00000000E+00  0.00000000E+00
  0.00000000E+00  0.00000000E+00  0.00000000E+00
  0.00000000E+00  0.00000000E+00  0.00000000E+00
  0.00000000E+00  0.00000000E+00  0.00000000E+00
  0.00000000E+00  0.00000000E+00  0.00000000E+00
  0.00000000E+00  0.00000000E+00  0.00000000E+00
  0.00000000E+00  0.00000000E+00  0.00000000E+00
  0.00000000E+00  0.00000000E+00  0.00000000E+00
  0.00000000E+00  0.00000000E+00  0.00000000E+00
  0.00000000E+00  0.00000000E+00  0.00000000E+00
  0.00000000E+00  0.00000000E+00  0.00000000E+00
  0.00000000E+00  0.00000000E+00  0.00000000E+00
  0.00000000E+00  0.00000000E+00  0.00000000E+00
  0.00000000E+00  0.00000000E+00  0.00000000E+00
  0.00000000E+00  0.00000000E+00  0.00000000E+00
  0.00000000E+00  0.00000000E+00  0.00000000E+00
  0.00000000E+00  0.00000000E+00  0.00000000E+00
  0.00000000E+00  0.00000000E+00  0.00000000E+00
  0.00000000E+00  0.00000000E+00  0.00000000E+00
  0.00000000E+00  0.00000000E+00  0.00000000E+00
  0.00000000E+00  0.00000000E+00  0.00000000E+00
  0.00000000E+00  0.00000000E+00  0.00000000E+00
  0.00000000E+00  0.00000000E+00  0.00000000E+00
  0.00000000E+00  0.00000000E+00  0.00000000E+00
  0.00000000E+00  0.00000000E+00  0.00000000E+00
  0.00000000E+00  0.00000000E+00  0.00000000E+00
  0.00000000E+00  0.00000000E+00  0.00000000E+00
  0.00000000E+00  0.00000000E+00  0.00000000E+00
  0.00000000E+00  0.00000000E+00  0.00000000E+00
  0.00000000E+00  0.00000000E+00  0.00000000E+00
  0.00000000E+00  0.00000000E+00  0.00000000E+00
  0.00000000E+00  0.00000000E+00  0.00000000E+00
  0.00000000E+00  0.00000000E+00  0.00000000E+00
  0.00000000E+00  0.00000000E+00  0.00000000E+00
  0.00000000E+00  0.00000000E+00  0.00000000E+00
  0.00000000E+00  0.00000000E+00  0.00000000E+00
  0.00000000E+00  0.00000000E+00  0.00000000E+00
  0.00000000E+00  0.00000000E+00  0.00000000E+00
  0.00000000E+00  0.00000000E+00  0.00000000E+00
  0.00000000E+00  0.00000000E+00  0.00000000E+00
  0.00000000E+00  0.00000000E+00  0.00000000E+00
  0.00000000E+00  0.00000000E+00  0.00000000E+00
  0.00000000E+00  0.00000000E+00  0.00000000E+00
  0.00000000E+00  0.00000000E+00  0.00000000E+00
  0.00000000E+00  0.00000000E+00  0.00000000E+00
