&INPUTPH
  outdir = './out/'
  prefix = 'NHNNO'
  tr2_ph = 1d-14
  fildyn = 'NHNNO.dyn'
  !epsil=.true.
  !ldisp=.true.
  !nq1 = 4
  !nq2 = 4
  !nq3 = 4
/
   0.000000000000000E+00  -0.500000000000000E+00   0.867295751174975E-01 
! recover = .true.

