&INPUT
fildyn = 'NHNNO.dyn'
zasr = 'crystal'
flfrc = 'NHNNO.fc'
/
